(set-logic QF_S)
(set-option :strings-exp true)
(set-option :produce-models true)
(declare-fun sigmaStar_0 () String)
(declare-fun sigmaStar_1 () String)
(declare-fun literal_7 () String)
(assert (= literal_7 "\x3c\x70\x20\x61\x6c\x69\x67\x6e\x3d\x22\x63\x65\x6e\x74\x65\x72\x22\x3e\x71\x75\x69\x7a\x6e\x6f\x74\x61\x76\x61\x69\x6c\x61\x62\x6c\x65\x3c\x2f\x70\x3e"))
(assert (str.in.re literal_7 (re.++ (re.* re.allchar) (re.++ (str.to.re "\x5c\x3c\x53\x43\x52\x49\x50\x54") (re.* re.allchar)))))
(check-sat)
(get-model)
